NAME : Instancia de pruebas
COMMENT : Instancia de pruebas creada por Lucas para debuggear
TYPE : CVRP
DIMENSION : 9
EDGE_WEIGHT_TYPE : EUC_2D 
CAPACITY : 100
NODE_COORD_SECTION 
 1 50 50
 2 75 50
 3 25 50
 4 50 75
 5 50 25
 6 75 75
 7 25 25
 8 75 25
 9 25 75
DEMAND_SECTION 
1 0 
2 50 
3 50 
4 50 
5 50 
6 50 
7 50 
8 50 
9 50 
DEPOT_SECTION 
 1  
 -1  
EOF 
